JulietBench/Juliet_Based_Patch_Bench/FFmpeg/CWE-189-Numeric-Errors/CVE_2015_8364_df91aa034b82b77a3c4e01791f4a2b2ff6c82066/Resultff_ivi_init_planes_Snippet_patch1EQ.smt2
; benchmark generated from python API
(set-info :status unknown)
(declare-fun R () (_ BitVec 32))
(declare-fun rdi () (_ BitVec 64))
(declare-fun rsi () (_ BitVec 64))
(assert
 (let (($x128 (= (_ bv3199971767 32) R)))
 (let ((?x14 ((_ extract 15 0) rdi)))
 (let ((?x72 (concat (_ bv0 16) ?x14)))
 (let (($x51 (bvsge (_ bv0 32) ?x72)))
 (let (($x188 (and $x51 $x128)))
 (let (($x63 (bvslt (_ bv0 32) ?x72)))
 (let ((?x15 ((_ extract 15 0) rsi)))
 (let ((?x71 (concat (_ bv0 16) ?x15)))
 (let (($x56 (bvsge (_ bv0 32) ?x71)))
 (let (($x187 (and $x56 $x63 $x128)))
 (let (($x39 (bvslt (_ bv0 32) ?x71)))
 (let ((?x12 (bvsub ?x71 (_ bv4294967168 32))))
 (let ((?x101 ((_ zero_extend 32) ?x12)))
 (let ((?x41 (bvsub ?x72 (_ bv4294967168 32))))
 (let ((?x55 ((_ zero_extend 32) ?x41)))
 (let ((?x100 (bvmul ?x55 ?x101)))
 (let (($x141 (bvugt ?x100 (_ bv268435454 64))))
 (let (($x186 (and $x141 $x39 $x63 $x128)))
 (let (($x45 (= (_ bv0 32) R)))
 (let (($x95 (bvule ?x100 (_ bv268435454 64))))
 (let (($x185 (and $x95 $x39 $x63 $x45)))
 (let (($x189 (or $x185 $x186 $x187 $x188)))
 (let (($x20 (= (_ bv0 16) ?x14)))
 (let (($x182 (and $x20 $x128)))
 (let (($x46 (and (distinct (_ bv0 16) ?x14) true)))
 (let (($x58 (= (_ bv0 16) ?x15)))
 (let (($x140 (and $x58 $x46 $x128)))
 (let (($x62 (and (distinct (_ bv0 16) ?x15) true)))
 (let (($x131 (and $x62 $x46 $x45)))
 (let (($x184 (or $x131 $x140 $x182)))
 (and $x184 $x189))))))))))))))))))))))))))))))))
(check-sat)
